; benchmark generated from python API
(set-info :status unknown)
(declare-fun x_days () Int)
(assert
 (>= x_days (- 36525)))
(assert
 (<= x_days 36523))
(assert
 (>= x_days 7245))
(assert
 (<= x_days 7303))
(assert
 (let ((?x1134 (+ x_days 730179)))
(let ((?x1133 (mod ?x1134 146097)))
(let ((?x750 (div ?x1133 36524)))
(let ((?x1067 (ite (<= 4 ?x750) 3 ?x750)))
(let ((?x616 (- ?x1133 (* ?x1067 36524))))
(let ((?x946 (mod ?x616 1461)))
(let ((?x955 (div ?x946 365)))
(let ((?x645 (ite (<= 4 ?x955) 3 ?x955)))
(let ((?x1174 (+ (+ (* (div ?x1134 146097) 400) (* ?x1067 100)) (* (div ?x616 1461) 4))))
(let ((?x3258 (+ (+ ?x1174 ?x645) 1)))
(let (($x581 (or (and (= (mod ?x3258 4) 0) (and (distinct (mod ?x3258 100) 0) true)) (= (mod ?x3258 400) 0))))
(let ((?x1019 (- ?x946 (* ?x645 365))))
(let ((?x1058 (ite $x581 31 31)))
(let (($x3484 (>= ?x1019 ?x1058)))
(let ((?x469 (ite $x3484 (+ (- ?x1019 ?x1058) 1) (+ (- ?x1019 (ite $x581 0 0)) 1))))
(let ((?x795 (ite $x581 60 59)))
(let (($x530 (>= ?x1019 ?x795)))
(let ((?x804 (ite $x581 91 90)))
(let (($x737 (>= ?x1019 ?x804)))
(let ((?x3531 (ite $x737 (+ (- ?x1019 ?x804) 1) (ite $x530 (+ (- ?x1019 ?x795) 1) ?x469))))
(let ((?x1265 (ite $x581 121 120)))
(let (($x720 (>= ?x1019 ?x1265)))
(let ((?x1263 (ite $x581 152 151)))
(let (($x465 (>= ?x1019 ?x1263)))
(let ((?x633 (ite $x465 (+ (- ?x1019 ?x1263) 1) (ite $x720 (+ (- ?x1019 ?x1265) 1) ?x3531))))
(let ((?x762 (ite $x581 182 181)))
(let (($x1071 (>= ?x1019 ?x762)))
(let ((?x966 (ite $x581 213 212)))
(let (($x930 (>= ?x1019 ?x966)))
(let ((?x3024 (ite $x930 (+ (- ?x1019 ?x966) 1) (ite $x1071 (+ (- ?x1019 ?x762) 1) ?x633))))
(let ((?x769 (ite $x581 244 243)))
(let (($x810 (>= ?x1019 ?x769)))
(let ((?x471 (ite $x581 274 273)))
(let (($x969 (>= ?x1019 ?x471)))
(let ((?x836 (ite $x969 (+ (- ?x1019 ?x471) 1) (ite $x810 (+ (- ?x1019 ?x769) 1) ?x3024))))
(let ((?x773 (ite $x581 305 304)))
(let (($x1147 (>= ?x1019 ?x773)))
(let ((?x1088 (ite $x581 335 334)))
(let (($x459 (>= ?x1019 ?x1088)))
(let ((?x498 (ite $x459 (+ (- ?x1019 ?x1088) 1) (ite $x1147 (+ (- ?x1019 ?x773) 1) ?x836))))
(let ((?x932 (ite $x720 5 (ite $x737 4 (ite $x530 3 (ite $x3484 2 1))))))
(let ((?x1042 (ite $x810 9 (ite $x930 8 (ite $x1071 7 (ite $x465 6 ?x932))))))
(let ((?x2785 (+ (ite $x459 12 (ite $x1147 11 (ite $x969 10 ?x1042))) (+ (* 1 12) 0))))
(let ((?x440 (- ?x2785 1)))
(let ((?x832 (+ (mod ?x440 12) 1)))
(let ((?x443 (ite (or (= ?x832 4) (= ?x832 6) (= ?x832 9) (= ?x832 11)) 30 31)))
(let (($x1032 (and (= (mod (+ ?x3258 (+ 0 (div ?x440 12))) 4) 0) (and (distinct (mod (+ ?x3258 (+ 0 (div ?x440 12))) 100) 0) true))))
(let (($x523 (or $x1032 (= (mod (+ ?x3258 (+ 0 (div ?x440 12))) 400) 0))))
(let ((?x964 (ite (= ?x832 2) (ite $x523 29 28) ?x443)))
(let ((?x492 (ite (> 1 ?x498) 1 (ite (> ?x498 ?x964) ?x964 ?x498))))
(let ((?x895 (ite (> 1 ?x492) 1 (ite (> ?x492 ?x964) ?x964 ?x492))))
(let ((?x1181 (ite (= 2 ?x832) (ite $x523 31 31) (ite (= 1 ?x832) (ite $x523 0 0) 0))))
(let ((?x987 (ite (= 4 ?x832) (ite $x523 91 90) (ite (= 3 ?x832) (ite $x523 60 59) ?x1181))))
(let ((?x829 (ite (= 6 ?x832) (ite $x523 152 151) (ite (= 5 ?x832) (ite $x523 121 120) ?x987))))
(let ((?x1050 (ite (= 8 ?x832) (ite $x523 213 212) (ite (= 7 ?x832) (ite $x523 182 181) ?x829))))
(let ((?x1127 (ite (= 10 ?x832) (ite $x523 274 273) (ite (= 9 ?x832) (ite $x523 244 243) ?x1050))))
(let ((?x2702 (ite (= 12 ?x832) (ite $x523 335 334) (ite (= 11 ?x832) (ite $x523 305 304) ?x1127))))
(let ((?x525 (+ (* 365 (- (+ ?x3258 (+ 0 (div ?x440 12))) 1)) (div (- (+ ?x3258 (+ 0 (div ?x440 12))) 1) 4))))
(let ((?x431 (+ (- ?x525 (div (- (+ ?x3258 (+ 0 (div ?x440 12))) 1) 100)) (div (- (+ ?x3258 (+ 0 (div ?x440 12))) 1) 400))))
(let ((?x755 (+ (+ (- (+ (+ ?x431 ?x2702) (- ?x895 1)) 730179) 0) 730179)))
(let ((?x573 (mod ?x755 146097)))
(let ((?x1011 (div ?x573 36524)))
(let ((?x859 (ite (<= 4 ?x1011) 3 ?x1011)))
(let ((?x488 (- ?x573 (* ?x859 36524))))
(let ((?x718 (mod ?x488 1461)))
(let ((?x1069 (div ?x718 365)))
(let ((?x858 (ite (<= 4 ?x1069) 3 ?x1069)))
(let ((?x3040 (+ (+ (* (div ?x755 146097) 400) (* ?x859 100)) (* (div ?x488 1461) 4))))
(let ((?x466 (+ (+ ?x3040 ?x858) 1)))
(let (($x864 (or (and (= (mod ?x466 4) 0) (and (distinct (mod ?x466 100) 0) true)) (= (mod ?x466 400) 0))))
(let ((?x3451 (- ?x718 (* ?x858 365))))
(let ((?x739 (ite $x864 31 31)))
(let (($x512 (>= ?x3451 ?x739)))
(let ((?x1126 (ite $x512 (+ (- ?x3451 ?x739) 1) (+ (- ?x3451 (ite $x864 0 0)) 1))))
(let ((?x3197 (ite $x864 60 59)))
(let (($x534 (>= ?x3451 ?x3197)))
(let ((?x734 (ite $x864 91 90)))
(let (($x758 (>= ?x3451 ?x734)))
(let ((?x3230 (ite $x758 (+ (- ?x3451 ?x734) 1) (ite $x534 (+ (- ?x3451 ?x3197) 1) ?x1126))))
(let ((?x2064 (ite $x864 121 120)))
(let (($x485 (>= ?x3451 ?x2064)))
(let ((?x3701 (ite $x864 152 151)))
(let (($x1769 (>= ?x3451 ?x3701)))
(let ((?x464 (ite $x1769 (+ (- ?x3451 ?x3701) 1) (ite $x485 (+ (- ?x3451 ?x2064) 1) ?x3230))))
(let ((?x1145 (ite $x864 182 181)))
(let (($x596 (>= ?x3451 ?x1145)))
(let ((?x497 (ite $x864 213 212)))
(let (($x848 (>= ?x3451 ?x497)))
(let ((?x491 (ite $x848 (+ (- ?x3451 ?x497) 1) (ite $x596 (+ (- ?x3451 ?x1145) 1) ?x464))))
(let ((?x1135 (ite $x864 244 243)))
(let (($x669 (>= ?x3451 ?x1135)))
(let ((?x835 (ite $x864 274 273)))
(let (($x855 (>= ?x3451 ?x835)))
(let ((?x784 (ite $x855 (+ (- ?x3451 ?x835) 1) (ite $x669 (+ (- ?x3451 ?x1135) 1) ?x491))))
(let ((?x2625 (ite $x864 305 304)))
(let (($x1063 (>= ?x3451 ?x2625)))
(let ((?x496 (ite $x864 335 334)))
(let (($x2645 (>= ?x3451 ?x496)))
(let ((?x806 (ite $x2645 (+ (- ?x3451 ?x496) 1) (ite $x1063 (+ (- ?x3451 ?x2625) 1) ?x784))))
(let (($x767 (= 0 0)))
(let (($x3538 (= (mod (ite $x767 (+ ?x3258 (+ 0 (div ?x440 12))) ?x466) 400) 0)))
(let (($x1119 (and (distinct (mod (ite $x767 (+ ?x3258 (+ 0 (div ?x440 12))) ?x466) 100) 0) true)))
(let (($x927 (= (mod (ite $x767 (+ ?x3258 (+ 0 (div ?x440 12))) ?x466) 4) 0)))
(let (($x2663 (or (and $x927 $x1119) $x3538)))
(let ((?x1102 (ite $x485 5 (ite $x758 4 (ite $x534 3 (ite $x512 2 1))))))
(let ((?x726 (ite $x669 9 (ite $x848 8 (ite $x596 7 (ite $x1769 6 ?x1102))))))
(let ((?x576 (ite $x767 ?x832 (ite $x2645 12 (ite $x1063 11 (ite $x855 10 ?x726))))))
(let ((?x807 (ite (= 2 ?x576) (ite $x2663 31 31) (ite (= 1 ?x576) (ite $x2663 0 0) 0))))
(let ((?x1106 (ite (= 4 ?x576) (ite $x2663 91 90) (ite (= 3 ?x576) (ite $x2663 60 59) ?x807))))
(let ((?x1060 (ite (= 6 ?x576) (ite $x2663 152 151) (ite (= 5 ?x576) (ite $x2663 121 120) ?x1106))))
(let ((?x2951 (ite (= 8 ?x576) (ite $x2663 213 212) (ite (= 7 ?x576) (ite $x2663 182 181) ?x1060))))
(let ((?x441 (ite (= 10 ?x576) (ite $x2663 274 273) (ite (= 9 ?x576) (ite $x2663 244 243) ?x2951))))
(let ((?x740 (ite (= 12 ?x576) (ite $x2663 335 334) (ite (= 11 ?x576) (ite $x2663 305 304) ?x441))))
(let ((?x578 (+ ?x3258 (+ 0 (div ?x440 12)))))
(let ((?x959 (ite $x767 ?x578 ?x466)))
(let ((?x799 (- ?x959 1)))
(let ((?x417 (+ (- (+ (* 365 ?x799) (div ?x799 4)) (div ?x799 100)) (div ?x799 400))))
(let (($x458 (= (- (+ (+ ?x417 ?x740) (- (ite $x767 ?x895 ?x806) 1)) 730179) (+ x_days 365))))
(not $x458))))))))))))))))))))))))))))))))))))))))))))))))))))))))))))))))))))))))))))))))))))))))))))))))))))))))))))))))))))))))
(check-sat)
